INPUT_PARAMETERS

suffix                  silica
calculation             scf
esolver_type            ksdft
symmetry                0
init_chg                atomic

pseudo_dir              ./
orbital_dir             ./

basis_type              lcao
ks_solver               genelpa
smearing_method         gaussian
smearing_sigma          0.01
mixing_type             broyden
mixing_beta             0.1
ecutwfc                 100
scf_thr                 1e-8
mixing_gg0              1.5
mixing_ndim             20

out_chg                 1
out_mat_hs2             1
out_mat_r               1
