ATOMIC_SPECIES
Si 28.086  Si_ONCV_PBE-1.0.upf
O 15.999   O_ONCV_PBE-1.0.upf

NUMERICAL_ORBITAL
Si_gga_7au_100Ry_2s2p1d.orb
O_gga_7au_100Ry_2s2p1d.orb

LATTICE_CONSTANT
1.8897261246257702

LATTICE_VECTORS
7.1199998856 0.0 0.0
0.0 7.1199998856 0.0
0.0 0.0 7.1199998856

ATOMIC_POSITIONS
Cartesian
Si
0.0
8
0.000000000000 0.000000000000 0.000000000000 1 1 1
0.000000000000 3.559999943000 3.559999943000 1 1 1
3.559999943000 3.559999943000 0.000000000000 1 1 1
3.559999943000 0.000000000000 3.559999943000 1 1 1
5.339999914000 1.779999971000 5.339999914000 1 1 1
1.779999971000 1.779999971000 1.779999971000 1 1 1
1.779999971000 5.339999914000 5.339999914000 1 1 1
5.339999914000 5.339999914000 1.779999971000 1 1 1
O
0.0
16
0.889999986000 0.889999986000 0.889999986000 1 1 1
6.229999900000 2.669999957000 4.449999928000 1 1 1
2.669999957000 4.449999928000 6.229999900000 1 1 1
4.449999928000 6.229999900000 2.669999957000 1 1 1
0.889999986000 4.449999928000 4.449999928000 1 1 1
6.229999900000 6.229999900000 0.889999986000 1 1 1
2.669999957000 0.889999986000 2.669999957000 1 1 1
4.449999928000 2.669999957000 6.229999900000 1 1 1
4.449999928000 0.889999986000 4.449999928000 1 1 1
2.669999957000 2.669999957000 0.889999986000 1 1 1
6.229999900000 4.449999928000 2.669999957000 1 1 1
0.889999986000 6.229999900000 6.229999900000 1 1 1
4.449999928000 4.449999928000 0.889999986000 1 1 1
2.669999957000 6.229999900000 4.449999928000 1 1 1
6.229999900000 0.889999986000 6.229999900000 1 1 1
0.889999986000 2.669999957000 2.669999957000 1 1 1
