INPUT_PARAMETERS
suffix              autotest
calculation         scf
ntype               2
basis_type          pw
pseudo_dir          ./

ecutwfc             100          # 截断能，单位 Ry
scf_thr             1e-6
scf_nmax            100

nspin               1            # 自旋非极化
symmetry            0

out_elf             1 3          # 输出 ELF，保留 3 位有效数字