ATOMIC_SPECIES
H 1.008 H_ONCV_PBE-1.0.upf

LATTICE_CONSTANT
1.0

LATTICE_VECTORS
18.8973  0.0000  0.0000
 0.0000 18.8973  0.0000
 0.0000  0.0000 18.8973

ATOMIC_POSITIONS
Direct

H
0.0
2
0.500000  0.500000  0.463000  0  0  0
0.500000  0.500000  0.537000  0  0  0
