ATOMIC_SPECIES
Si 28.085500 

NUMERICAL_ORBITAL

LATTICE_CONSTANT
1.889726

LATTICE_VECTORS
    5.43000000000     0.00000000000     0.00000000000
    0.00000000000     5.43000000000     0.00000000000
    0.00000000000     0.00000000000     5.43000000000

ATOMIC_POSITIONS
Cartesian

Si
0.000000
8
    0.00000000000     0.00000000000     0.00000000000 1 1 1 
    1.35750000000     1.35750000000     1.35750000000 1 1 1 
    0.00000000000     2.71500000000     2.71500000000 1 1 1 
    1.35750000000     4.07250000000     4.07250000000 1 1 1 
    2.71500000000     0.00000000000     2.71500000000 1 1 1 
    4.07250000000     1.35750000000     4.07250000000 1 1 1 
    2.71500000000     2.71500000000     0.00000000000 1 1 1 
    4.07250000000     4.07250000000     1.35750000000 1 1 1 
