ATOMIC_SPECIES
Ti 47.867000 Ti_ONCV_PBE-1.0.upf
O 15.999400 O_ONCV_PBE-1.0.upf

NUMERICAL_ORBITAL
./Ti_gga_8au_100Ry_4s2p2d1f.orb
./O_gga_7au_100Ry_2s2p1d.orb

LATTICE_CONSTANT
1.889726

LATTICE_VECTORS
    4.60240000000     0.00000000000     0.00000000000
    0.00000000000     4.60240000000     0.00000000000
    0.00000000000     0.00000000000     2.95330000000

ATOMIC_POSITIONS
Cartesian

Ti
0.000000
2
    0.00000000000     0.00000000000     0.00000000000 1 1 1
    2.30120000000     2.30120000000     1.47665000000 1 1 1

O
0.000000
4
    1.40189104000     1.40189104000     0.00000000000 1 1 1
    3.20050896000     3.20050896000     0.00000000000 1 1 1
    0.89930896000     3.70309104000     1.47665000000 1 1 1
    3.70309104000     0.89930896000     1.47665000000 1 1 1
