ATOMIC_SPECIES
H   1.008    H_ONCV_PBE-1.0.upf
O  15.999    O_ONCV_PBE-1.0.upf

NUMERICAL_ORBITAL
H_gga_8au_100Ry_2s1p.orb
O_gga_7au_100Ry_2s2p1d.orb

LATTICE_CONSTANT
1.889726

LATTICE_VECTORS
14.82   0.00    0.00
 0.00  14.82    0.00
 0.00   0.00   14.82

ATOMIC_POSITIONS
Direct

H
0.0
2
0.4274  0.6688  0.2972  0  0  0
0.5087  0.7379  0.2679  0  0  0

O
0.0
1
0.4841  0.7029  0.3264  0  0  0