ATOMIC_SPECIES
Ti  47.8670 Ti_ONCV_PBE-1.0.upf upf201
O  15.9994 O_ONCV_PBE-1.0.upf upf201

NUMERICAL_ORBITAL
./Ti_gga_8au_100Ry_4s2p2d1f.orb
./O_gga_7au_100Ry_2s2p1d.orb

LATTICE_CONSTANT
1.8897260000

LATTICE_VECTORS
        4.6437110052        0.0000000000        0.0000000000
        0.0000000000        4.6437110052        0.0000000000
        0.0000000000       -0.0297039379        2.9702452719

ATOMIC_POSITIONS
Direct

Ti #label
0.0000   #magnetism
2 #number of atoms
        0.0000000000        0.0000000000        0.0000000000 m 1 1 1
        0.5000000000        0.5000000000        0.5000000000 m 1 1 1

O #label
0.0000   #magnetism
4 #number of atoms
        0.3059496825        0.3059455444        0.9992496402 m 1 1 1
        0.6940503175        0.6940544556        0.0007503598 m 1 1 1
        0.1940503175        0.8059455444        0.4992496402 m 1 1 1
        0.8059496825        0.1940544556        0.5007503598 m 1 1 1
