INPUT_PARAMETERS
calculation     relax
symmetry     1
ecutwfc     100
scf_thr     1e-07
scf_nmax     100
smearing_method     gauss
smearing_sigma     0.015
mixing_type     broyden
mixing_beta     0.8
basis_type     lcao
ks_solver     genelpa
precision     double
cal_force     1
cal_stress     1
