ATOMIC_SPECIES
Al  26.982  Al_ONCV_PBE-1.0.upf

LATTICE_CONSTANT
1.0

LATTICE_VECTORS
15.30  0.00   0.00
0.00   15.30  0.00
0.00   0.00   7.65

ATOMIC_POSITIONS
Direct

Al
0
16
0.00  0.00  0.00  1  1  1
0.50  0.00  0.00  1  1  1
0.00  0.50  0.00  1  1  1
0.50  0.50  0.00  1  1  1
0.25  0.25  0.00  1  1  1
0.75  0.25  0.00  1  1  1
0.25  0.75  0.00  1  1  1
0.75  0.75  0.00  1  1  1
0.25  0.00  0.50  1  1  1
0.75  0.00  0.50  1  1  1
0.25  0.50  0.50  1  1  1
0.75  0.50  0.50  1  1  1
0.00  0.25  0.50  1  1  1
0.50  0.25  0.50  1  1  1
0.00  0.75  0.50  1  1  1
0.50  0.75  0.50  1  1  1
