INPUT_PARAMETERS
suffix              autotest
calculation         scf
ntype               1
basis_type          pw
pseudo_dir          ./

ecutwfc             100          # 截断能，单位 Ry
scf_thr             1e-6
scf_nmax            200

nspin               2            # 自旋极化（共线磁矩）
smearing_method     gauss
smearing_sigma      0.01

mixing_type         broyden
mixing_beta         0.7

out_elf             1 3          # 输出 ELF（总/自旋↑/自旋↓）