ATOMIC_SPECIES
Ti  47.8670 Ti_ONCV_PBE-1.0.upf upf201
O  15.9994 O_ONCV_PBE-1.0.upf upf201

NUMERICAL_ORBITAL
./Ti_gga_8au_100Ry_4s2p2d1f.orb
./O_gga_7au_100Ry_2s2p1d.orb

LATTICE_CONSTANT
1.8897260000

LATTICE_VECTORS
        4.6437110052        0.0000000000        0.0000000000
        0.0000000000        4.6437110052        0.0000000000
        0.0000000000        0.0000000000        2.9999506805

ATOMIC_POSITIONS
Direct

Ti #label
0.0000   #magnetism
2 #number of atoms
        0.0000000000        0.0000000000        0.0000000000 m 1 1 1
        0.5000000000        0.5000000000        0.5000000000 m 1 1 1

O #label
0.0000   #magnetism
4 #number of atoms
        0.3059866449        0.3059866449        0.0000000000 m 1 1 1
        0.6940133551        0.6940133551        0.0000000000 m 1 1 1
        0.1940133551        0.8059866449        0.5000000000 m 1 1 1
        0.8059866449        0.1940133551        0.5000000000 m 1 1 1
