ATOMIC_SPECIES
Si  28.0855  Si_ONCV_PBE-1.2.upf
Li   6.941   Li_ONCV_PBE-1.2.upf

NUMERICAL_ORBITAL
Si_gga_8au_100Ry_2s2p1d.orb
Li_gga_8au_100Ry_4s1p.orb

LATTICE_CONSTANT
1.0

LATTICE_VECTORS
10.262  0.000  0.000
 0.000 10.262  0.000
 0.000  0.000 10.262

ATOMIC_POSITIONS
Direct

Si
0.0
8
0.000  0.000  0.000  0  0  0
0.500  0.500  0.000  0  0  0
0.500  0.000  0.500  0  0  0
0.000  0.500  0.500  0  0  0
0.250  0.250  0.250  0  0  0
0.750  0.750  0.250  0  0  0
0.750  0.250  0.750  0  0  0
0.250  0.750  0.750  0  0  0

Li
0.0
1
0.500  0.500  0.500  0  0  0
