ATOMIC_SPECIES
Si  28.085  Si_ONCV_PBE-1.0.upf

LATTICE_CONSTANT
10.2

LATTICE_VECTORS
1.0  0.0  0.0
0.0  1.0  0.0
0.0  0.0  1.0

ATOMIC_POSITIONS
Fractional

Si
0
2
0.00  0.00  0.00  1  1  1
0.25  0.25  0.25  1  1  1
