ATOMIC_SPECIES
Ni1 58.693 Ni_ONCV_PBE-1.0.upf
Ni2 58.693 Ni_ONCV_PBE-1.0.upf
O   15.999 O_ONCV_PBE-1.0.upf

NUMERICAL_ORBITAL
Ni_gga_9au_100Ry_4s2p2d1f.orb
Ni_gga_9au_100Ry_4s2p2d1f.orb
O_gga_7au_100Ry_2s2p1d.orb

LATTICE_CONSTANT
1.0

LATTICE_VECTORS
9.6226  0.0000  0.0000    #latteice vector A1 (Bohr)
7.9999  5.3468  0.0000    #latteice vector A2 (Bohr)
7.9999  2.4270  4.7629    #latteice vector A3 (Bohr)

ATOMIC_POSITIONS
Direct

Ni1
2.0
1
0.000000000  0.000000000  0.000000000  0  0  0

Ni2
-2.0
1
0.500000000  0.500000000  0.500000000  0  0  0

O
0.0
2
0.250000000  0.250000000  0.250000000  0  0  0
0.750000000  0.750000000  0.750000000  0  0  0
