ATOMIC_SPECIES
Ti  47.8670 Ti_ONCV_PBE-1.0.upf upf201
O  15.9994 O_ONCV_PBE-1.0.upf upf201

NUMERICAL_ORBITAL
./Ti_gga_8au_100Ry_4s2p2d1f.orb
./O_gga_7au_100Ry_2s2p1d.orb

LATTICE_CONSTANT
1.8897260000

LATTICE_VECTORS
        4.6437110052        0.0000000000        0.0000000000
        0.0000000000        4.6437110052        0.0000000000
        0.0000000000        0.0594078759        2.9697996571

ATOMIC_POSITIONS
Direct

Ti #label
0.0000   #magnetism
2 #number of atoms
        0.0000000000        0.0000000000        0.0000000000 m 1 1 1
        0.5000000000        0.5000000000        0.5000000000 m 1 1 1

O #label
0.0000   #magnetism
4 #number of atoms
        0.3057967899        0.3057553700        0.0036586372 m 1 1 1
        0.6942032101        0.6942446300        0.9963413628 m 1 1 1
        0.1942032101        0.8057553700        0.5036586372 m 1 1 1
        0.8057967899        0.1942446300        0.4963413628 m 1 1 1
