ATOMIC_SPECIES
Si  28.0850 Si_ONCV_PBE-1.0.upf upf201

NUMERICAL_ORBITAL
Si_gga_8au_100Ry_2s2p1d.orb

LATTICE_CONSTANT
10.2000000000

LATTICE_VECTORS
        0.5000000000        0.5000000000        0.0000000000
        0.0000000000        0.5000000000        0.5000000000
        0.5000000000        0.0000000000        0.5000000000

ATOMIC_POSITIONS
Cartesian

Si #label
0.0000   #magnetism
2 #number of atoms
        0.0000000000        0.0000000000        0.0000000000 m 1 1 1 v        0.0000000000       -0.0000000000        0.0000000000
        0.2500000000        0.2500000000        0.2500000000 m 1 1 1 v        0.0000000000       -0.0000000000        0.0000000000
