INPUT_PARAMETERS
#Parameters (1.General)
suffix           Si_tddft_test
calculation      md
esolver_type     tddft
pseudo_dir       ./
orbital_dir      ./

#Parameters (2.Basis)
basis_type       lcao
gamma_only       0

#Parameters (3.MD / 时间步)
md_nstep         50
md_dt            0.02
md_tfirst        0
md_type          nve

#Parameters (4.外场：混合规范，弱场宽带激发)
td_vext          1
td_stype         2

td_tstart        1
td_tend          50

td_vext_dire     1
td_ttype         0
td_gauss_amp     0.001
td_gauss_t0      10
td_gauss_sigma   0.5
td_gauss_freq    0.0
td_gauss_phase   0.0

#Parameters (5.精度)
ecutwfc          60
scf_thr          1e-7
scf_nmax         100

#Parameters (6.输出)
out_current      1
out_efield       1
