ATOMIC_SPECIES
Si   28.085   Si_ONCV_PBE-1.0.upf

NUMERICAL_ORBITAL
Si_gga_8au_100Ry_2s2p1d.orb

LATTICE_CONSTANT
10.2

LATTICE_VECTORS
   0.5000000000     0.5000000000     0.0000000000
   0.0000000000     0.5000000000     0.5000000000
   0.5000000000     0.0000000000     0.5000000000

ATOMIC_POSITIONS
Direct
Si
0
2
   0.0000000000     0.0000000000     0.0000000000  m  1  1  1
   0.2500000000     0.2500000000     0.2500000000  m  1  1  1
