ATOMIC_SPECIES
Si  28.085  Si_ONCV_PBE-1.0.upf

LATTICE_CONSTANT
1.0

LATTICE_VECTORS
0.0  5.1  5.1
5.1  0.0  5.1
5.1  5.1  0.0

ATOMIC_POSITIONS
Direct

Si
0
1
0.00  0.00  0.00  1  1  1
