ATOMIC_SPECIES
Ti 47.867000 Ti_ONCV_PBE-1.0.upf
O 15.999400 O_ONCV_PBE-1.0.upf

NUMERICAL_ORBITAL
./Ti_gga_8au_100Ry_4s2p2d1f.orb
./O_gga_7au_100Ry_2s2p1d.orb

LATTICE_CONSTANT
1.889726

LATTICE_VECTORS
    4.64371100520     0.00000000000     0.00000000000
    0.00000000000     4.64371100520     0.00000000000
   -0.02970393795     0.00000000000     2.97024527190

ATOMIC_POSITIONS
Direct

Ti
0.000000
2
    0.00000000000     0.00000000000     0.00000000000 1 1 1 
    0.50000000000     0.50000000000     0.50000000000 1 1 1 

O
0.000000
4
    0.30598664490     0.30598664490     0.00000000000 1 1 1 
    0.69401335510     0.69401335510     0.00000000000 1 1 1 
    0.19401335510     0.80598664490     0.50000000000 1 1 1 
    0.80598664490     0.19401335510     0.50000000000 1 1 1 
