ATOMIC_SPECIES
Al  26.9820 Al_ONCV_PBE-1.0.upf upf201

LATTICE_CONSTANT
1.0000000000

LATTICE_VECTORS
       15.3000000000        0.0000000000        0.0000000000
        0.0000000000       15.3000000000        0.0000000000
        0.0000000000        0.0000000000        7.6500000000

ATOMIC_POSITIONS
Cartesian

Al #label
0.0000   #magnetism
16 #number of atoms
        0.0000000000        0.0000000000        0.0000000000 m 1 1 1 v       -0.0107789415       -0.0022856220        0.0032289308
        7.6500000000        0.0000000000        0.0000000000 m 1 1 1 v       -0.0107515574        0.0030901325        0.0014578532
        0.0000000000        7.6500000000        0.0000000000 m 1 1 1 v        0.0004555541       -0.0031851956       -0.0016817814
        7.6500000000        7.6500000000        0.0000000000 m 1 1 1 v       -0.0003591473        0.0017443356       -0.0021961109
        3.8250000000        3.8250000000        0.0000000000 m 1 1 1 v        0.0036082193        0.0120787472       -0.0049832952
       11.4750000000        3.8250000000        0.0000000000 m 1 1 1 v        0.0137283702       -0.0126856741       -0.0121407080
        3.8250000000       11.4750000000        0.0000000000 m 1 1 1 v       -0.0116110806        0.0104455918       -0.0163418913
       11.4750000000       11.4750000000        0.0000000000 m 1 1 1 v       -0.0138865491        0.0106188578        0.0053825663
        3.8250000000        0.0000000000        3.8250000000 m 1 1 1 v        0.0038349744       -0.0035871258        0.0062754123
       11.4750000000        0.0000000000        3.8250000000 m 1 1 1 v        0.0057487871        0.0158849517        0.0022113740
        3.8250000000        7.6500000000        3.8250000000 m 1 1 1 v        0.0017968718        0.0064113052        0.0037851426
       11.4750000000        7.6500000000        3.8250000000 m 1 1 1 v       -0.0042909839       -0.0048131593        0.0017829818
        0.0000000000        3.8250000000        3.8250000000 m 1 1 1 v        0.0155018846       -0.0189936354        0.0049466786
        7.6500000000        3.8250000000        3.8250000000 m 1 1 1 v        0.0032918450       -0.0040313150        0.0096768305
        0.0000000000       11.4750000000        3.8250000000 m 1 1 1 v        0.0080994874       -0.0105737070       -0.0093951975
        7.6500000000       11.4750000000        3.8250000000 m 1 1 1 v       -0.0043877343       -0.0001184874        0.0079912143
