ATOMIC_SPECIES
Si 28.085500 Si_ONCV_PBE-1.0.upf

NUMERICAL_ORBITAL
./Si_gga_8au_100Ry_2s2p1d.orb

LATTICE_CONSTANT
1.889726

LATTICE_VECTORS
    5.47021454960     0.00000000000     0.00000000000
    0.10940429099     5.46912039726     0.00000000000
    0.00000000000     0.00000000000     5.47021454960

ATOMIC_POSITIONS
Direct

Si
0.000000
8
    0.00000000000     0.00000000000     0.00000000000 1 1 1 
    0.25000000000     0.25000000000     0.25000000000 1 1 1 
    0.00000000000     0.50000000000     0.50000000000 1 1 1 
    0.25000000000     0.75000000000     0.75000000000 1 1 1 
    0.50000000000     0.00000000000     0.50000000000 1 1 1 
    0.75000000000     0.25000000000     0.75000000000 1 1 1 
    0.50000000000     0.50000000000     0.00000000000 1 1 1 
    0.75000000000     0.75000000000     0.25000000000 1 1 1 
